50
    1    35    27
    2   482   540
    3   353   326
    4   292   243
    5   198   248
    6   375   425
    7   386   353
    8   202   235
    9    37    73
   10    66    26
   11    84    95
   12   403   451
   13   386   352
   14   515   516
   15   150   160
   16   487   436
   17   180   145
   18   415   456
   19   434   485
   20   290   326
   21    29     9
   22   419   455
   23   139   160
   24   571   566
   25    69    24
   26   300   320
   27    18    62
   28   521   527
   29   409   369
   30   431   375
   31    99   133
   32   507   483
   33   214   207
   34   390   349
   35     1     8
   36     1    25
   37   528   528
   38   139   156
   39   514   504
   40   484   502
   41   611   579
   42     1    41
   43   262   226
   44   539   493
   45   529   475
   46   284   234
   47   207   165
   48   245   289
   49   437   427
   50    57     8
601
